67
 1 1206 18
 2 469 7
 3 67 1
 4 1273 19
 5 1005 15
 6 1206 18
 7 1072 16
 8 670 10
 9 134 2
 10 804 12
 11 603 9
 12 938 14
 13 670 10
 14 134 2
 15 804 12
 16 804 12
 17 67 1
 18 804 12
 19 1139 17
 20 938 14
 21 402 6
 22 335 5
 23 469 7
 24 402 6
 25 335 5
 26 1340 20
 27 1072 16
 28 804 12
 29 1206 18
 30 469 7
 31 938 14
 32 804 12
 33 1072 16
 34 804 12
 35 603 9
 36 1139 17
 37 1139 17
 38 804 12
 39 737 11
 40 670 10
 41 804 12
 42 737 11
 43 670 10
 44 1072 16
 45 871 13
 46 536 8
 47 536 8
 48 1206 18
 49 201 3
 50 804 12
 51 871 13
 52 335 5
 53 268 4
 54 469 7
 55 1139 17
 56 1072 16
 57 737 11
 58 536 8
 59 737 11
 60 1273 19
 61 335 5
 62 67 1
 63 67 1
 64 402 6
 65 1340 20
 66 134 2
 67 871 13
268